data/lp_files/q3/86_2.lp
\ Model foo
\ LP format - for model browsing. Use MPS format to capture full model detail.
Minimize
  z
Subject To
 allocateEach[1]: x[1,1] + x[2,1] + x[3,1] + x[4,1] + x[5,1] = 1
 allocateEach[2]: x[1,2] + x[2,2] + x[3,2] + x[4,2] + x[5,2] = 1
 allocateEach[3]: x[1,3] + x[2,3] + x[3,3] + x[4,3] + x[5,3] = 1
 allocateEach[4]: x[1,4] + x[2,4] + x[3,4] + x[4,4] + x[5,4] = 1
 allocateEach[5]: x[1,5] + x[2,5] + x[3,5] + x[4,5] + x[5,5] = 1
 allocateEach[6]: x[1,6] + x[2,6] + x[3,6] + x[4,6] + x[5,6] = 1
 allocateAllCash: cashProportion[1] + cashProportion[2] + cashProportion[3]
   + cashProportion[4] + cashProportion[5] = 1
 findWorstP[1,2]: z + 0.0625808335767033 cashProportion[1]
   - 0.0625808335767033 cashProportion[2] + 0.0191080145187534 x[1,1]
   + 0.389503108181401 x[1,2] + 0.0158538111727648 x[1,3]
   + 0.2218281947515541 x[1,4] + 0.1902874546288957 x[1,5]
   + 0.1008385831699278 x[1,6] - 0.0191080145187534 x[2,1]
   - 0.389503108181401 x[2,2] - 0.0158538111727648 x[2,3]
   - 0.2218281947515541 x[2,4] - 0.1902874546288957 x[2,5]
   - 0.1008385831699278 x[2,6] >= 0
 findWorstP[1,3]: z + 0.0625808335767033 cashProportion[1]
   - 0.0625808335767033 cashProportion[3] + 0.0191080145187534 x[1,1]
   + 0.389503108181401 x[1,2] + 0.0158538111727648 x[1,3]
   + 0.2218281947515541 x[1,4] + 0.1902874546288957 x[1,5]
   + 0.1008385831699278 x[1,6] - 0.0191080145187534 x[3,1]
   - 0.389503108181401 x[3,2] - 0.0158538111727648 x[3,3]
   - 0.2218281947515541 x[3,4] - 0.1902874546288957 x[3,5]
   - 0.1008385831699278 x[3,6] >= 0
 findWorstP[1,4]: z + 0.0625808335767033 cashProportion[1]
   - 0.0625808335767033 cashProportion[4] + 0.0191080145187534 x[1,1]
   + 0.389503108181401 x[1,2] + 0.0158538111727648 x[1,3]
   + 0.2218281947515541 x[1,4] + 0.1902874546288957 x[1,5]
   + 0.1008385831699278 x[1,6] - 0.0191080145187534 x[4,1]
   - 0.389503108181401 x[4,2] - 0.0158538111727648 x[4,3]
   - 0.2218281947515541 x[4,4] - 0.1902874546288957 x[4,5]
   - 0.1008385831699278 x[4,6] >= 0
 findWorstP[1,5]: z + 0.0625808335767033 cashProportion[1]
   - 0.0625808335767033 cashProportion[5] + 0.0191080145187534 x[1,1]
   + 0.389503108181401 x[1,2] + 0.0158538111727648 x[1,3]
   + 0.2218281947515541 x[1,4] + 0.1902874546288957 x[1,5]
   + 0.1008385831699278 x[1,6] - 0.0191080145187534 x[5,1]
   - 0.389503108181401 x[5,2] - 0.0158538111727648 x[5,3]
   - 0.2218281947515541 x[5,4] - 0.1902874546288957 x[5,5]
   - 0.1008385831699278 x[5,6] >= 0
 findWorstP[2,1]: z - 0.0565440289505428 cashProportion[1]
   + 0.0565440289505428 cashProportion[2] - 0.1551945114595899 x[1,1]
   - 0.3269375753920386 x[1,2] - 0.2574261158021713 x[1,3]
   - 0.0470069360675513 x[1,4] - 0.0594466224366707 x[1,5]
   - 0.0974442098914355 x[1,6] + 0.1551945114595899 x[2,1]
   + 0.3269375753920386 x[2,2] + 0.2574261158021713 x[2,3]
   + 0.0470069360675513 x[2,4] + 0.0594466224366707 x[2,5]
   + 0.0974442098914355 x[2,6] >= 0
 findWorstP[2,3]: z + 0.0565440289505428 cashProportion[2]
   - 0.0565440289505428 cashProportion[3] + 0.1551945114595899 x[2,1]
   + 0.3269375753920386 x[2,2] + 0.2574261158021713 x[2,3]
   + 0.0470069360675513 x[2,4] + 0.0594466224366707 x[2,5]
   + 0.0974442098914355 x[2,6] - 0.1551945114595899 x[3,1]
   - 0.3269375753920386 x[3,2] - 0.2574261158021713 x[3,3]
   - 0.0470069360675513 x[3,4] - 0.0594466224366707 x[3,5]
   - 0.0974442098914355 x[3,6] >= 0
 findWorstP[2,4]: z + 0.0565440289505428 cashProportion[2]
   - 0.0565440289505428 cashProportion[4] + 0.1551945114595899 x[2,1]
   + 0.3269375753920386 x[2,2] + 0.2574261158021713 x[2,3]
   + 0.0470069360675513 x[2,4] + 0.0594466224366707 x[2,5]
   + 0.0974442098914355 x[2,6] - 0.1551945114595899 x[4,1]
   - 0.3269375753920386 x[4,2] - 0.2574261158021713 x[4,3]
   - 0.0470069360675513 x[4,4] - 0.0594466224366707 x[4,5]
   - 0.0974442098914355 x[4,6] >= 0
 findWorstP[2,5]: z + 0.0565440289505428 cashProportion[2]
   - 0.0565440289505428 cashProportion[5] + 0.1551945114595899 x[2,1]
   + 0.3269375753920386 x[2,2] + 0.2574261158021713 x[2,3]
   + 0.0470069360675513 x[2,4] + 0.0594466224366707 x[2,5]
   + 0.0974442098914355 x[2,6] - 0.1551945114595899 x[5,1]
   - 0.3269375753920386 x[5,2] - 0.2574261158021713 x[5,3]
   - 0.0470069360675513 x[5,4] - 0.0594466224366707 x[5,5]
   - 0.0974442098914355 x[5,6] >= 0
 findWorstP[3,1]: z - 0.0471535003615102 cashProportion[1]
   + 0.0471535003615102 cashProportion[3] - 0.1115966175222407 x[1,1]
   - 0.1284775706516614 x[1,2] - 0.0520260287321996 x[1,3]
   - 0.1489736254754645 x[1,4] - 0.2415516645185628 x[1,5]
   - 0.270220992738361 x[1,6] + 0.1115966175222407 x[3,1]
   + 0.1284775706516614 x[3,2] + 0.0520260287321996 x[3,3]
   + 0.1489736254754645 x[3,4] + 0.2415516645185628 x[3,5]
   + 0.270220992738361 x[3,6] >= 0
 findWorstP[3,2]: z - 0.0471535003615102 cashProportion[2]
   + 0.0471535003615102 cashProportion[3] - 0.1115966175222407 x[2,1]
   - 0.1284775706516614 x[2,2] - 0.0520260287321996 x[2,3]
   - 0.1489736254754645 x[2,4] - 0.2415516645185628 x[2,5]
   - 0.270220992738361 x[2,6] + 0.1115966175222407 x[3,1]
   + 0.1284775706516614 x[3,2] + 0.0520260287321996 x[3,3]
   + 0.1489736254754645 x[3,4] + 0.2415516645185628 x[3,5]
   + 0.270220992738361 x[3,6] >= 0
 findWorstP[3,4]: z + 0.0471535003615102 cashProportion[3]
   - 0.0471535003615102 cashProportion[4] + 0.1115966175222407 x[3,1]
   + 0.1284775706516614 x[3,2] + 0.0520260287321996 x[3,3]
   + 0.1489736254754645 x[3,4] + 0.2415516645185628 x[3,5]
   + 0.270220992738361 x[3,6] - 0.1115966175222407 x[4,1]
   - 0.1284775706516614 x[4,2] - 0.0520260287321996 x[4,3]
   - 0.1489736254754645 x[4,4] - 0.2415516645185628 x[4,5]
   - 0.270220992738361 x[4,6] >= 0
 findWorstP[3,5]: z + 0.0471535003615102 cashProportion[3]
   - 0.0471535003615102 cashProportion[5] + 0.1115966175222407 x[3,1]
   + 0.1284775706516614 x[3,2] + 0.0520260287321996 x[3,3]
   + 0.1489736254754645 x[3,4] + 0.2415516645185628 x[3,5]
   + 0.270220992738361 x[3,6] - 0.1115966175222407 x[5,1]
   - 0.1284775706516614 x[5,2] - 0.0520260287321996 x[5,3]
   - 0.1489736254754645 x[5,4] - 0.2415516645185628 x[5,5]
   - 0.270220992738361 x[5,6] >= 0
 findWorstP[4,1]: z - 0.0508578015867634 cashProportion[1]
   + 0.0508578015867634 cashProportion[4] - 0.1689496168712281 x[1,1]
   - 0.1674238828236252 x[1,2] - 0.141011731199566 x[1,3]
   - 0.17583237268597 x[1,4] - 0.1177527632738862 x[1,5]
   - 0.1781718315589612 x[1,6] + 0.1689496168712281 x[4,1]
   + 0.1674238828236252 x[4,2] + 0.141011731199566 x[4,3]
   + 0.17583237268597 x[4,4] + 0.1177527632738862 x[4,5]
   + 0.1781718315589612 x[4,6] >= 0
 findWorstP[4,2]: z - 0.0508578015867634 cashProportion[2]
   + 0.0508578015867634 cashProportion[4] - 0.1689496168712281 x[2,1]
   - 0.1674238828236252 x[2,2] - 0.141011731199566 x[2,3]
   - 0.17583237268597 x[2,4] - 0.1177527632738862 x[2,5]
   - 0.1781718315589612 x[2,6] + 0.1689496168712281 x[4,1]
   + 0.1674238828236252 x[4,2] + 0.141011731199566 x[4,3]
   + 0.17583237268597 x[4,4] + 0.1177527632738862 x[4,5]
   + 0.1781718315589612 x[4,6] >= 0
 findWorstP[4,3]: z - 0.0508578015867634 cashProportion[3]
   + 0.0508578015867634 cashProportion[4] - 0.1689496168712281 x[3,1]
   - 0.1674238828236252 x[3,2] - 0.141011731199566 x[3,3]
   - 0.17583237268597 x[3,4] - 0.1177527632738862 x[3,5]
   - 0.1781718315589612 x[3,6] + 0.1689496168712281 x[4,1]
   + 0.1674238828236252 x[4,2] + 0.141011731199566 x[4,3]
   + 0.17583237268597 x[4,4] + 0.1177527632738862 x[4,5]
   + 0.1781718315589612 x[4,6] >= 0
 findWorstP[4,5]: z + 0.0508578015867634 cashProportion[4]
   - 0.0508578015867634 cashProportion[5] + 0.1689496168712281 x[4,1]
   + 0.1674238828236252 x[4,2] + 0.141011731199566 x[4,3]
   + 0.17583237268597 x[4,4] + 0.1177527632738862 x[4,5]
   + 0.1781718315589612 x[4,6] - 0.1689496168712281 x[5,1]
   - 0.1674238828236252 x[5,2] - 0.141011731199566 x[5,3]
   - 0.17583237268597 x[5,4] - 0.1177527632738862 x[5,5]
   - 0.1781718315589612 x[5,6] >= 0
 findWorstP[5,1]: z - 0.0462677359654534 cashProportion[1]
   + 0.0462677359654534 cashProportion[5] - 0.1621221468229488 x[1,1]
   - 0.2489512646514498 x[1,2] - 0.107248611967921 x[1,3]
   - 0.2084515731030228 x[1,4] - 0.1573103022825416 x[1,5]
   - 0.0696483652066626 x[1,6] + 0.1621221468229488 x[5,1]
   + 0.2489512646514498 x[5,2] + 0.107248611967921 x[5,3]
   + 0.2084515731030228 x[5,4] + 0.1573103022825416 x[5,5]
   + 0.0696483652066626 x[5,6] >= 0
 findWorstP[5,2]: z - 0.0462677359654534 cashProportion[2]
   + 0.0462677359654534 cashProportion[5] - 0.1621221468229488 x[2,1]
   - 0.2489512646514498 x[2,2] - 0.107248611967921 x[2,3]
   - 0.2084515731030228 x[2,4] - 0.1573103022825416 x[2,5]
   - 0.0696483652066626 x[2,6] + 0.1621221468229488 x[5,1]
   + 0.2489512646514498 x[5,2] + 0.107248611967921 x[5,3]
   + 0.2084515731030228 x[5,4] + 0.1573103022825416 x[5,5]
   + 0.0696483652066626 x[5,6] >= 0
 findWorstP[5,3]: z - 0.0462677359654534 cashProportion[3]
   + 0.0462677359654534 cashProportion[5] - 0.1621221468229488 x[3,1]
   - 0.2489512646514498 x[3,2] - 0.107248611967921 x[3,3]
   - 0.2084515731030228 x[3,4] - 0.1573103022825416 x[3,5]
   - 0.0696483652066626 x[3,6] + 0.1621221468229488 x[5,1]
   + 0.2489512646514498 x[5,2] + 0.107248611967921 x[5,3]
   + 0.2084515731030228 x[5,4] + 0.1573103022825416 x[5,5]
   + 0.0696483652066626 x[5,6] >= 0
 findWorstP[5,4]: z - 0.0462677359654534 cashProportion[4]
   + 0.0462677359654534 cashProportion[5] - 0.1621221468229488 x[4,1]
   - 0.2489512646514498 x[4,2] - 0.107248611967921 x[4,3]
   - 0.2084515731030228 x[4,4] - 0.1573103022825416 x[4,5]
   - 0.0696483652066626 x[4,6] + 0.1621221468229488 x[5,1]
   + 0.2489512646514498 x[5,2] + 0.107248611967921 x[5,3]
   + 0.2084515731030228 x[5,4] + 0.1573103022825416 x[5,5]
   + 0.0696483652066626 x[5,6] >= 0
Bounds
 z <= 1
 -infinity <= cashProportion[1] <= 1
 -infinity <= cashProportion[2] <= 1
 -infinity <= cashProportion[3] <= 1
 -infinity <= cashProportion[4] <= 1
 -infinity <= cashProportion[5] <= 1
Binaries
 x[1,1] x[1,2] x[1,3] x[1,4] x[1,5] x[1,6] x[2,1] x[2,2] x[2,3] x[2,4]
 x[2,5] x[2,6] x[3,1] x[3,2] x[3,3] x[3,4] x[3,5] x[3,6] x[4,1] x[4,2]
 x[4,3] x[4,4] x[4,5] x[4,6] x[5,1] x[5,2] x[5,3] x[5,4] x[5,5] x[5,6]
End
