data/mps_files/pEFS/86_2.mps
NAME foo
ROWS
 N  OBJ
 E  allocateEach[1]
 E  allocateEach[2]
 E  allocateEach[3]
 E  allocateEach[4]
 E  allocateEach[5]
 E  allocateEach[6]
 E  allocateAllCash
 G  findWorstP[1,2]
 G  findWorstP[1,3]
 G  findWorstP[1,4]
 G  findWorstP[1,5]
 G  findWorstP[2,1]
 G  findWorstP[2,3]
 G  findWorstP[2,4]
 G  findWorstP[2,5]
 G  findWorstP[3,1]
 G  findWorstP[3,2]
 G  findWorstP[3,4]
 G  findWorstP[3,5]
 G  findWorstP[4,1]
 G  findWorstP[4,2]
 G  findWorstP[4,3]
 G  findWorstP[4,5]
 G  findWorstP[5,1]
 G  findWorstP[5,2]
 G  findWorstP[5,3]
 G  findWorstP[5,4]
COLUMNS
    z         OBJ       1
    z         findWorstP[1,2]  1
    z         findWorstP[1,3]  1
    z         findWorstP[1,4]  1
    z         findWorstP[1,5]  1
    z         findWorstP[2,1]  1
    z         findWorstP[2,3]  1
    z         findWorstP[2,4]  1
    z         findWorstP[2,5]  1
    z         findWorstP[3,1]  1
    z         findWorstP[3,2]  1
    z         findWorstP[3,4]  1
    z         findWorstP[3,5]  1
    z         findWorstP[4,1]  1
    z         findWorstP[4,2]  1
    z         findWorstP[4,3]  1
    z         findWorstP[4,5]  1
    z         findWorstP[5,1]  1
    z         findWorstP[5,2]  1
    z         findWorstP[5,3]  1
    z         findWorstP[5,4]  1
    cashProportion[1]  allocateAllCash  1
    cashProportion[1]  findWorstP[1,2]  6.2580833576703257e-02
    cashProportion[1]  findWorstP[1,3]  6.2580833576703257e-02
    cashProportion[1]  findWorstP[1,4]  6.2580833576703257e-02
    cashProportion[1]  findWorstP[1,5]  6.2580833576703257e-02
    cashProportion[1]  findWorstP[2,1]  -5.6544028950542835e-02
    cashProportion[1]  findWorstP[3,1]  -4.7153500361510177e-02
    cashProportion[1]  findWorstP[4,1]  -5.0857801586763424e-02
    cashProportion[1]  findWorstP[5,1]  -4.6267735965453437e-02
    cashProportion[2]  allocateAllCash  1
    cashProportion[2]  findWorstP[1,2]  -6.2580833576703257e-02
    cashProportion[2]  findWorstP[2,1]  5.6544028950542835e-02
    cashProportion[2]  findWorstP[2,3]  5.6544028950542835e-02
    cashProportion[2]  findWorstP[2,4]  5.6544028950542835e-02
    cashProportion[2]  findWorstP[2,5]  5.6544028950542835e-02
    cashProportion[2]  findWorstP[3,2]  -4.7153500361510177e-02
    cashProportion[2]  findWorstP[4,2]  -5.0857801586763424e-02
    cashProportion[2]  findWorstP[5,2]  -4.6267735965453437e-02
    cashProportion[3]  allocateAllCash  1
    cashProportion[3]  findWorstP[1,3]  -6.2580833576703257e-02
    cashProportion[3]  findWorstP[2,3]  -5.6544028950542835e-02
    cashProportion[3]  findWorstP[3,1]  4.7153500361510177e-02
    cashProportion[3]  findWorstP[3,2]  4.7153500361510177e-02
    cashProportion[3]  findWorstP[3,4]  4.7153500361510177e-02
    cashProportion[3]  findWorstP[3,5]  4.7153500361510177e-02
    cashProportion[3]  findWorstP[4,3]  -5.0857801586763424e-02
    cashProportion[3]  findWorstP[5,3]  -4.6267735965453437e-02
    cashProportion[4]  allocateAllCash  1
    cashProportion[4]  findWorstP[1,4]  -6.2580833576703257e-02
    cashProportion[4]  findWorstP[2,4]  -5.6544028950542835e-02
    cashProportion[4]  findWorstP[3,4]  -4.7153500361510177e-02
    cashProportion[4]  findWorstP[4,1]  5.0857801586763424e-02
    cashProportion[4]  findWorstP[4,2]  5.0857801586763424e-02
    cashProportion[4]  findWorstP[4,3]  5.0857801586763424e-02
    cashProportion[4]  findWorstP[4,5]  5.0857801586763424e-02
    cashProportion[4]  findWorstP[5,4]  -4.6267735965453437e-02
    cashProportion[5]  allocateAllCash  1
    cashProportion[5]  findWorstP[1,5]  -6.2580833576703257e-02
    cashProportion[5]  findWorstP[2,5]  -5.6544028950542835e-02
    cashProportion[5]  findWorstP[3,5]  -4.7153500361510177e-02
    cashProportion[5]  findWorstP[4,5]  -5.0857801586763424e-02
    cashProportion[5]  findWorstP[5,1]  4.6267735965453437e-02
    cashProportion[5]  findWorstP[5,2]  4.6267735965453437e-02
    cashProportion[5]  findWorstP[5,3]  4.6267735965453437e-02
    cashProportion[5]  findWorstP[5,4]  4.6267735965453437e-02
    MARKER    'MARKER'                 'INTORG'
    x[1,1]    allocateEach[1]  1
    x[1,1]    findWorstP[1,2]  1.9108014518753390e-02
    x[1,1]    findWorstP[1,3]  1.9108014518753390e-02
    x[1,1]    findWorstP[1,4]  1.9108014518753390e-02
    x[1,1]    findWorstP[1,5]  1.9108014518753390e-02
    x[1,1]    findWorstP[2,1]  -1.5519451145958987e-01
    x[1,1]    findWorstP[3,1]  -1.1159661752224073e-01
    x[1,1]    findWorstP[4,1]  -1.6894961687122809e-01
    x[1,1]    findWorstP[5,1]  -1.6212214682294879e-01
    x[1,2]    allocateEach[2]  1
    x[1,2]    findWorstP[1,2]  0.389503108181401
    x[1,2]    findWorstP[1,3]  0.389503108181401
    x[1,2]    findWorstP[1,4]  0.389503108181401
    x[1,2]    findWorstP[1,5]  0.389503108181401
    x[1,2]    findWorstP[2,1]  -3.2693757539203860e-01
    x[1,2]    findWorstP[3,1]  -1.2847757065166138e-01
    x[1,2]    findWorstP[4,1]  -1.6742388282362516e-01
    x[1,2]    findWorstP[5,1]  -2.4895126465144976e-01
    x[1,3]    allocateEach[3]  1
    x[1,3]    findWorstP[1,2]  1.5853811172764822e-02
    x[1,3]    findWorstP[1,3]  1.5853811172764822e-02
    x[1,3]    findWorstP[1,4]  1.5853811172764822e-02
    x[1,3]    findWorstP[1,5]  1.5853811172764822e-02
    x[1,3]    findWorstP[2,1]  -2.5742611580217128e-01
    x[1,3]    findWorstP[3,1]  -5.2026028732199560e-02
    x[1,3]    findWorstP[4,1]  -1.4101173119956603e-01
    x[1,3]    findWorstP[5,1]  -1.0724861196792104e-01
    x[1,4]    allocateEach[4]  1
    x[1,4]    findWorstP[1,2]  2.2182819475155410e-01
    x[1,4]    findWorstP[1,3]  2.2182819475155410e-01
    x[1,4]    findWorstP[1,4]  2.2182819475155410e-01
    x[1,4]    findWorstP[1,5]  2.2182819475155410e-01
    x[1,4]    findWorstP[2,1]  -4.7006936067551269e-02
    x[1,4]    findWorstP[3,1]  -1.4897362547546447e-01
    x[1,4]    findWorstP[4,1]  -1.7583237268597002e-01
    x[1,4]    findWorstP[5,1]  -2.0845157310302281e-01
    x[1,5]    allocateEach[5]  1
    x[1,5]    findWorstP[1,2]  1.9028745462889568e-01
    x[1,5]    findWorstP[1,3]  1.9028745462889568e-01
    x[1,5]    findWorstP[1,4]  1.9028745462889568e-01
    x[1,5]    findWorstP[1,5]  1.9028745462889568e-01
    x[1,5]    findWorstP[2,1]  -5.9446622436670690e-02
    x[1,5]    findWorstP[3,1]  -2.4155166451856278e-01
    x[1,5]    findWorstP[4,1]  -1.1775276327388623e-01
    x[1,5]    findWorstP[5,1]  -1.5731030228254164e-01
    x[1,6]    allocateEach[6]  1
    x[1,6]    findWorstP[1,2]  1.0083858316992783e-01
    x[1,6]    findWorstP[1,3]  1.0083858316992783e-01
    x[1,6]    findWorstP[1,4]  1.0083858316992783e-01
    x[1,6]    findWorstP[1,5]  1.0083858316992783e-01
    x[1,6]    findWorstP[2,1]  -9.7444209891435471e-02
    x[1,6]    findWorstP[3,1]  -0.270220992738361
    x[1,6]    findWorstP[4,1]  -1.7817183155896116e-01
    x[1,6]    findWorstP[5,1]  -6.9648365206662566e-02
    x[2,1]    allocateEach[1]  1
    x[2,1]    findWorstP[1,2]  -1.9108014518753390e-02
    x[2,1]    findWorstP[2,1]  1.5519451145958987e-01
    x[2,1]    findWorstP[2,3]  1.5519451145958987e-01
    x[2,1]    findWorstP[2,4]  1.5519451145958987e-01
    x[2,1]    findWorstP[2,5]  1.5519451145958987e-01
    x[2,1]    findWorstP[3,2]  -1.1159661752224073e-01
    x[2,1]    findWorstP[4,2]  -1.6894961687122809e-01
    x[2,1]    findWorstP[5,2]  -1.6212214682294879e-01
    x[2,2]    allocateEach[2]  1
    x[2,2]    findWorstP[1,2]  -0.389503108181401
    x[2,2]    findWorstP[2,1]  3.2693757539203860e-01
    x[2,2]    findWorstP[2,3]  3.2693757539203860e-01
    x[2,2]    findWorstP[2,4]  3.2693757539203860e-01
    x[2,2]    findWorstP[2,5]  3.2693757539203860e-01
    x[2,2]    findWorstP[3,2]  -1.2847757065166138e-01
    x[2,2]    findWorstP[4,2]  -1.6742388282362516e-01
    x[2,2]    findWorstP[5,2]  -2.4895126465144976e-01
    x[2,3]    allocateEach[3]  1
    x[2,3]    findWorstP[1,2]  -1.5853811172764822e-02
    x[2,3]    findWorstP[2,1]  2.5742611580217128e-01
    x[2,3]    findWorstP[2,3]  2.5742611580217128e-01
    x[2,3]    findWorstP[2,4]  2.5742611580217128e-01
    x[2,3]    findWorstP[2,5]  2.5742611580217128e-01
    x[2,3]    findWorstP[3,2]  -5.2026028732199560e-02
    x[2,3]    findWorstP[4,2]  -1.4101173119956603e-01
    x[2,3]    findWorstP[5,2]  -1.0724861196792104e-01
    x[2,4]    allocateEach[4]  1
    x[2,4]    findWorstP[1,2]  -2.2182819475155410e-01
    x[2,4]    findWorstP[2,1]  4.7006936067551269e-02
    x[2,4]    findWorstP[2,3]  4.7006936067551269e-02
    x[2,4]    findWorstP[2,4]  4.7006936067551269e-02
    x[2,4]    findWorstP[2,5]  4.7006936067551269e-02
    x[2,4]    findWorstP[3,2]  -1.4897362547546447e-01
    x[2,4]    findWorstP[4,2]  -1.7583237268597002e-01
    x[2,4]    findWorstP[5,2]  -2.0845157310302281e-01
    x[2,5]    allocateEach[5]  1
    x[2,5]    findWorstP[1,2]  -1.9028745462889568e-01
    x[2,5]    findWorstP[2,1]  5.9446622436670690e-02
    x[2,5]    findWorstP[2,3]  5.9446622436670690e-02
    x[2,5]    findWorstP[2,4]  5.9446622436670690e-02
    x[2,5]    findWorstP[2,5]  5.9446622436670690e-02
    x[2,5]    findWorstP[3,2]  -2.4155166451856278e-01
    x[2,5]    findWorstP[4,2]  -1.1775276327388623e-01
    x[2,5]    findWorstP[5,2]  -1.5731030228254164e-01
    x[2,6]    allocateEach[6]  1
    x[2,6]    findWorstP[1,2]  -1.0083858316992783e-01
    x[2,6]    findWorstP[2,1]  9.7444209891435471e-02
    x[2,6]    findWorstP[2,3]  9.7444209891435471e-02
    x[2,6]    findWorstP[2,4]  9.7444209891435471e-02
    x[2,6]    findWorstP[2,5]  9.7444209891435471e-02
    x[2,6]    findWorstP[3,2]  -0.270220992738361
    x[2,6]    findWorstP[4,2]  -1.7817183155896116e-01
    x[2,6]    findWorstP[5,2]  -6.9648365206662566e-02
    x[3,1]    allocateEach[1]  1
    x[3,1]    findWorstP[1,3]  -1.9108014518753390e-02
    x[3,1]    findWorstP[2,3]  -1.5519451145958987e-01
    x[3,1]    findWorstP[3,1]  1.1159661752224073e-01
    x[3,1]    findWorstP[3,2]  1.1159661752224073e-01
    x[3,1]    findWorstP[3,4]  1.1159661752224073e-01
    x[3,1]    findWorstP[3,5]  1.1159661752224073e-01
    x[3,1]    findWorstP[4,3]  -1.6894961687122809e-01
    x[3,1]    findWorstP[5,3]  -1.6212214682294879e-01
    x[3,2]    allocateEach[2]  1
    x[3,2]    findWorstP[1,3]  -0.389503108181401
    x[3,2]    findWorstP[2,3]  -3.2693757539203860e-01
    x[3,2]    findWorstP[3,1]  1.2847757065166138e-01
    x[3,2]    findWorstP[3,2]  1.2847757065166138e-01
    x[3,2]    findWorstP[3,4]  1.2847757065166138e-01
    x[3,2]    findWorstP[3,5]  1.2847757065166138e-01
    x[3,2]    findWorstP[4,3]  -1.6742388282362516e-01
    x[3,2]    findWorstP[5,3]  -2.4895126465144976e-01
    x[3,3]    allocateEach[3]  1
    x[3,3]    findWorstP[1,3]  -1.5853811172764822e-02
    x[3,3]    findWorstP[2,3]  -2.5742611580217128e-01
    x[3,3]    findWorstP[3,1]  5.2026028732199560e-02
    x[3,3]    findWorstP[3,2]  5.2026028732199560e-02
    x[3,3]    findWorstP[3,4]  5.2026028732199560e-02
    x[3,3]    findWorstP[3,5]  5.2026028732199560e-02
    x[3,3]    findWorstP[4,3]  -1.4101173119956603e-01
    x[3,3]    findWorstP[5,3]  -1.0724861196792104e-01
    x[3,4]    allocateEach[4]  1
    x[3,4]    findWorstP[1,3]  -2.2182819475155410e-01
    x[3,4]    findWorstP[2,3]  -4.7006936067551269e-02
    x[3,4]    findWorstP[3,1]  1.4897362547546447e-01
    x[3,4]    findWorstP[3,2]  1.4897362547546447e-01
    x[3,4]    findWorstP[3,4]  1.4897362547546447e-01
    x[3,4]    findWorstP[3,5]  1.4897362547546447e-01
    x[3,4]    findWorstP[4,3]  -1.7583237268597002e-01
    x[3,4]    findWorstP[5,3]  -2.0845157310302281e-01
    x[3,5]    allocateEach[5]  1
    x[3,5]    findWorstP[1,3]  -1.9028745462889568e-01
    x[3,5]    findWorstP[2,3]  -5.9446622436670690e-02
    x[3,5]    findWorstP[3,1]  2.4155166451856278e-01
    x[3,5]    findWorstP[3,2]  2.4155166451856278e-01
    x[3,5]    findWorstP[3,4]  2.4155166451856278e-01
    x[3,5]    findWorstP[3,5]  2.4155166451856278e-01
    x[3,5]    findWorstP[4,3]  -1.1775276327388623e-01
    x[3,5]    findWorstP[5,3]  -1.5731030228254164e-01
    x[3,6]    allocateEach[6]  1
    x[3,6]    findWorstP[1,3]  -1.0083858316992783e-01
    x[3,6]    findWorstP[2,3]  -9.7444209891435471e-02
    x[3,6]    findWorstP[3,1]  0.270220992738361
    x[3,6]    findWorstP[3,2]  0.270220992738361
    x[3,6]    findWorstP[3,4]  0.270220992738361
    x[3,6]    findWorstP[3,5]  0.270220992738361
    x[3,6]    findWorstP[4,3]  -1.7817183155896116e-01
    x[3,6]    findWorstP[5,3]  -6.9648365206662566e-02
    x[4,1]    allocateEach[1]  1
    x[4,1]    findWorstP[1,4]  -1.9108014518753390e-02
    x[4,1]    findWorstP[2,4]  -1.5519451145958987e-01
    x[4,1]    findWorstP[3,4]  -1.1159661752224073e-01
    x[4,1]    findWorstP[4,1]  1.6894961687122809e-01
    x[4,1]    findWorstP[4,2]  1.6894961687122809e-01
    x[4,1]    findWorstP[4,3]  1.6894961687122809e-01
    x[4,1]    findWorstP[4,5]  1.6894961687122809e-01
    x[4,1]    findWorstP[5,4]  -1.6212214682294879e-01
    x[4,2]    allocateEach[2]  1
    x[4,2]    findWorstP[1,4]  -0.389503108181401
    x[4,2]    findWorstP[2,4]  -3.2693757539203860e-01
    x[4,2]    findWorstP[3,4]  -1.2847757065166138e-01
    x[4,2]    findWorstP[4,1]  1.6742388282362516e-01
    x[4,2]    findWorstP[4,2]  1.6742388282362516e-01
    x[4,2]    findWorstP[4,3]  1.6742388282362516e-01
    x[4,2]    findWorstP[4,5]  1.6742388282362516e-01
    x[4,2]    findWorstP[5,4]  -2.4895126465144976e-01
    x[4,3]    allocateEach[3]  1
    x[4,3]    findWorstP[1,4]  -1.5853811172764822e-02
    x[4,3]    findWorstP[2,4]  -2.5742611580217128e-01
    x[4,3]    findWorstP[3,4]  -5.2026028732199560e-02
    x[4,3]    findWorstP[4,1]  1.4101173119956603e-01
    x[4,3]    findWorstP[4,2]  1.4101173119956603e-01
    x[4,3]    findWorstP[4,3]  1.4101173119956603e-01
    x[4,3]    findWorstP[4,5]  1.4101173119956603e-01
    x[4,3]    findWorstP[5,4]  -1.0724861196792104e-01
    x[4,4]    allocateEach[4]  1
    x[4,4]    findWorstP[1,4]  -2.2182819475155410e-01
    x[4,4]    findWorstP[2,4]  -4.7006936067551269e-02
    x[4,4]    findWorstP[3,4]  -1.4897362547546447e-01
    x[4,4]    findWorstP[4,1]  1.7583237268597002e-01
    x[4,4]    findWorstP[4,2]  1.7583237268597002e-01
    x[4,4]    findWorstP[4,3]  1.7583237268597002e-01
    x[4,4]    findWorstP[4,5]  1.7583237268597002e-01
    x[4,4]    findWorstP[5,4]  -2.0845157310302281e-01
    x[4,5]    allocateEach[5]  1
    x[4,5]    findWorstP[1,4]  -1.9028745462889568e-01
    x[4,5]    findWorstP[2,4]  -5.9446622436670690e-02
    x[4,5]    findWorstP[3,4]  -2.4155166451856278e-01
    x[4,5]    findWorstP[4,1]  1.1775276327388623e-01
    x[4,5]    findWorstP[4,2]  1.1775276327388623e-01
    x[4,5]    findWorstP[4,3]  1.1775276327388623e-01
    x[4,5]    findWorstP[4,5]  1.1775276327388623e-01
    x[4,5]    findWorstP[5,4]  -1.5731030228254164e-01
    x[4,6]    allocateEach[6]  1
    x[4,6]    findWorstP[1,4]  -1.0083858316992783e-01
    x[4,6]    findWorstP[2,4]  -9.7444209891435471e-02
    x[4,6]    findWorstP[3,4]  -0.270220992738361
    x[4,6]    findWorstP[4,1]  1.7817183155896116e-01
    x[4,6]    findWorstP[4,2]  1.7817183155896116e-01
    x[4,6]    findWorstP[4,3]  1.7817183155896116e-01
    x[4,6]    findWorstP[4,5]  1.7817183155896116e-01
    x[4,6]    findWorstP[5,4]  -6.9648365206662566e-02
    x[5,1]    allocateEach[1]  1
    x[5,1]    findWorstP[1,5]  -1.9108014518753390e-02
    x[5,1]    findWorstP[2,5]  -1.5519451145958987e-01
    x[5,1]    findWorstP[3,5]  -1.1159661752224073e-01
    x[5,1]    findWorstP[4,5]  -1.6894961687122809e-01
    x[5,1]    findWorstP[5,1]  1.6212214682294879e-01
    x[5,1]    findWorstP[5,2]  1.6212214682294879e-01
    x[5,1]    findWorstP[5,3]  1.6212214682294879e-01
    x[5,1]    findWorstP[5,4]  1.6212214682294879e-01
    x[5,2]    allocateEach[2]  1
    x[5,2]    findWorstP[1,5]  -0.389503108181401
    x[5,2]    findWorstP[2,5]  -3.2693757539203860e-01
    x[5,2]    findWorstP[3,5]  -1.2847757065166138e-01
    x[5,2]    findWorstP[4,5]  -1.6742388282362516e-01
    x[5,2]    findWorstP[5,1]  2.4895126465144976e-01
    x[5,2]    findWorstP[5,2]  2.4895126465144976e-01
    x[5,2]    findWorstP[5,3]  2.4895126465144976e-01
    x[5,2]    findWorstP[5,4]  2.4895126465144976e-01
    x[5,3]    allocateEach[3]  1
    x[5,3]    findWorstP[1,5]  -1.5853811172764822e-02
    x[5,3]    findWorstP[2,5]  -2.5742611580217128e-01
    x[5,3]    findWorstP[3,5]  -5.2026028732199560e-02
    x[5,3]    findWorstP[4,5]  -1.4101173119956603e-01
    x[5,3]    findWorstP[5,1]  1.0724861196792104e-01
    x[5,3]    findWorstP[5,2]  1.0724861196792104e-01
    x[5,3]    findWorstP[5,3]  1.0724861196792104e-01
    x[5,3]    findWorstP[5,4]  1.0724861196792104e-01
    x[5,4]    allocateEach[4]  1
    x[5,4]    findWorstP[1,5]  -2.2182819475155410e-01
    x[5,4]    findWorstP[2,5]  -4.7006936067551269e-02
    x[5,4]    findWorstP[3,5]  -1.4897362547546447e-01
    x[5,4]    findWorstP[4,5]  -1.7583237268597002e-01
    x[5,4]    findWorstP[5,1]  2.0845157310302281e-01
    x[5,4]    findWorstP[5,2]  2.0845157310302281e-01
    x[5,4]    findWorstP[5,3]  2.0845157310302281e-01
    x[5,4]    findWorstP[5,4]  2.0845157310302281e-01
    x[5,5]    allocateEach[5]  1
    x[5,5]    findWorstP[1,5]  -1.9028745462889568e-01
    x[5,5]    findWorstP[2,5]  -5.9446622436670690e-02
    x[5,5]    findWorstP[3,5]  -2.4155166451856278e-01
    x[5,5]    findWorstP[4,5]  -1.1775276327388623e-01
    x[5,5]    findWorstP[5,1]  1.5731030228254164e-01
    x[5,5]    findWorstP[5,2]  1.5731030228254164e-01
    x[5,5]    findWorstP[5,3]  1.5731030228254164e-01
    x[5,5]    findWorstP[5,4]  1.5731030228254164e-01
    x[5,6]    allocateEach[6]  1
    x[5,6]    findWorstP[1,5]  -1.0083858316992783e-01
    x[5,6]    findWorstP[2,5]  -9.7444209891435471e-02
    x[5,6]    findWorstP[3,5]  -0.270220992738361
    x[5,6]    findWorstP[4,5]  -1.7817183155896116e-01
    x[5,6]    findWorstP[5,1]  6.9648365206662566e-02
    x[5,6]    findWorstP[5,2]  6.9648365206662566e-02
    x[5,6]    findWorstP[5,3]  6.9648365206662566e-02
    x[5,6]    findWorstP[5,4]  6.9648365206662566e-02
    MARKER    'MARKER'                 'INTEND'
RHS
    RHS1      allocateEach[1]  1
    RHS1      allocateEach[2]  1
    RHS1      allocateEach[3]  1
    RHS1      allocateEach[4]  1
    RHS1      allocateEach[5]  1
    RHS1      allocateEach[6]  1
    RHS1      allocateAllCash  1
BOUNDS
 UP BND1      z         1
 MI BND1      cashProportion[1]
 UP BND1      cashProportion[1]  1
 MI BND1      cashProportion[2]
 UP BND1      cashProportion[2]  1
 MI BND1      cashProportion[3]
 UP BND1      cashProportion[3]  1
 MI BND1      cashProportion[4]
 UP BND1      cashProportion[4]  1
 MI BND1      cashProportion[5]
 UP BND1      cashProportion[5]  1
 BV BND1      x[1,1]  
 BV BND1      x[1,2]  
 BV BND1      x[1,3]  
 BV BND1      x[1,4]  
 BV BND1      x[1,5]  
 BV BND1      x[1,6]  
 BV BND1      x[2,1]  
 BV BND1      x[2,2]  
 BV BND1      x[2,3]  
 BV BND1      x[2,4]  
 BV BND1      x[2,5]  
 BV BND1      x[2,6]  
 BV BND1      x[3,1]  
 BV BND1      x[3,2]  
 BV BND1      x[3,3]  
 BV BND1      x[3,4]  
 BV BND1      x[3,5]  
 BV BND1      x[3,6]  
 BV BND1      x[4,1]  
 BV BND1      x[4,2]  
 BV BND1      x[4,3]  
 BV BND1      x[4,4]  
 BV BND1      x[4,5]  
 BV BND1      x[4,6]  
 BV BND1      x[5,1]  
 BV BND1      x[5,2]  
 BV BND1      x[5,3]  
 BV BND1      x[5,4]  
 BV BND1      x[5,5]  
 BV BND1      x[5,6]  
ENDATA
